c
c Renamed file of cht.cnf 
c Variables are renamed according to left2right.ord 
c
c Date: Thu Apr 29 14:49:10 PDT 2004 by (jinbo)
c Host: Linux solution 2.4.18-4smp #1 SMP Thu May 2 18:32:34 EDT 2002 i686 unknown
c
c Copyright (c) 2001 Fadi A. Aloul.
c
p cnf 205 650
-24 -125 0
-97 -125 0
124 -125 0
125 24 97 -124 0
-125 126 0
24 -121 0
-97 -121 0
122 -121 0
121 -24 97 -122 0
-121 126 0
-97 -123 0
124 -123 0
122 -123 0
123 97 -124 -122 0
-123 126 0
-126 125 121 123 0
-24 -127 0
-97 -127 0
128 -127 0
127 24 97 -128 0
-127 132 0
24 -129 0
-97 -129 0
130 -129 0
129 -24 97 -130 0
-129 132 0
-97 -131 0
128 -131 0
130 -131 0
131 97 -128 -130 0
-131 132 0
-132 127 129 131 0
-24 -6 0
-97 -6 0
5 -6 0
6 24 97 -5 0
-6 3 0
24 -2 0
-97 -2 0
1 -2 0
2 -24 97 -1 0
-2 3 0
-97 -4 0
5 -4 0
1 -4 0
4 97 -5 -1 0
-4 3 0
-3 6 2 4 0
-24 -23 0
-97 -23 0
91 -23 0
23 24 97 -91 0
-23 21 0
24 -22 0
-97 -22 0
19 -22 0
22 -24 97 -19 0
-22 21 0
-97 -20 0
91 -20 0
19 -20 0
20 97 -91 -19 0
-20 21 0
-21 23 22 20 0
-24 -8 0
-97 -8 0
9 -8 0
8 24 97 -9 0
-8 7 0
24 -12 0
-97 -12 0
11 -12 0
12 -24 97 -11 0
-12 7 0
-97 -10 0
9 -10 0
11 -10 0
10 97 -9 -11 0
-10 7 0
-7 8 12 10 0
-24 -18 0
-97 -18 0
17 -18 0
18 24 97 -17 0
-18 15 0
24 -16 0
-97 -16 0
13 -16 0
16 -24 97 -13 0
-16 15 0
-97 -14 0
17 -14 0
13 -14 0
14 97 -17 -13 0
-14 15 0
-15 18 16 14 0
157 -199 0
-97 -199 0
198 -199 0
199 -157 97 -198 0
-199 203 0
-157 -200 0
-97 -200 0
201 -200 0
200 157 97 -201 0
-200 203 0
-97 -202 0
198 -202 0
201 -202 0
202 97 -198 -201 0
-202 203 0
-203 199 200 202 0
157 -194 0
-97 -194 0
193 -194 0
194 -157 97 -193 0
-194 196 0
-157 -195 0
-97 -195 0
198 -195 0
195 157 97 -198 0
-195 196 0
-97 -197 0
193 -197 0
198 -197 0
197 97 -193 -198 0
-197 196 0
-196 194 195 197 0
157 -189 0
-97 -189 0
188 -189 0
189 -157 97 -188 0
-189 191 0
-157 -192 0
-97 -192 0
193 -192 0
192 157 97 -193 0
-192 191 0
-97 -190 0
188 -190 0
193 -190 0
190 97 -188 -193 0
-190 191 0
-191 189 192 190 0
157 -184 0
-97 -184 0
183 -184 0
184 -157 97 -183 0
-184 186 0
-157 -185 0
-97 -185 0
188 -185 0
185 157 97 -188 0
-185 186 0
-97 -187 0
183 -187 0
188 -187 0
187 97 -183 -188 0
-187 186 0
-186 184 185 187 0
157 -179 0
-97 -179 0
178 -179 0
179 -157 97 -178 0
-179 181 0
-157 -182 0
-97 -182 0
183 -182 0
182 157 97 -183 0
-182 181 0
-97 -180 0
178 -180 0
183 -180 0
180 97 -178 -183 0
-180 181 0
-181 179 182 180 0
157 -174 0
-97 -174 0
173 -174 0
174 -157 97 -173 0
-174 176 0
-157 -175 0
-97 -175 0
178 -175 0
175 157 97 -178 0
-175 176 0
-97 -177 0
173 -177 0
178 -177 0
177 97 -173 -178 0
-177 176 0
-176 174 175 177 0
157 -169 0
-97 -169 0
168 -169 0
169 -157 97 -168 0
-169 171 0
-157 -172 0
-97 -172 0
173 -172 0
172 157 97 -173 0
-172 171 0
-97 -170 0
168 -170 0
173 -170 0
170 97 -168 -173 0
-170 171 0
-171 169 172 170 0
157 -164 0
-97 -164 0
163 -164 0
164 -157 97 -163 0
-164 166 0
-157 -165 0
-97 -165 0
168 -165 0
165 157 97 -168 0
-165 166 0
-97 -167 0
163 -167 0
168 -167 0
167 97 -163 -168 0
-167 166 0
-166 164 165 167 0
157 -159 0
-97 -159 0
158 -159 0
159 -157 97 -158 0
-159 161 0
-157 -160 0
-97 -160 0
163 -160 0
160 157 97 -163 0
-160 161 0
-97 -162 0
158 -162 0
163 -162 0
162 97 -158 -163 0
-162 161 0
-161 159 160 162 0
157 -153 0
-97 -153 0
152 -153 0
153 -157 97 -152 0
-153 155 0
-157 -156 0
-97 -156 0
158 -156 0
156 157 97 -158 0
-156 155 0
-97 -154 0
152 -154 0
158 -154 0
154 97 -152 -158 0
-154 155 0
-155 153 156 154 0
157 -149 0
-97 -149 0
147 -149 0
149 -157 97 -147 0
-149 150 0
-157 -151 0
-97 -151 0
152 -151 0
151 157 97 -152 0
-151 150 0
-97 -148 0
147 -148 0
152 -148 0
148 97 -147 -152 0
-148 150 0
-150 149 151 148 0
157 -143 0
-97 -143 0
142 -143 0
143 -157 97 -142 0
-143 145 0
-157 -146 0
-97 -146 0
147 -146 0
146 157 97 -147 0
-146 145 0
-97 -144 0
142 -144 0
147 -144 0
144 97 -142 -147 0
-144 145 0
-145 143 146 144 0
157 -139 0
-97 -139 0
137 -139 0
139 -157 97 -137 0
-139 140 0
-157 -141 0
-97 -141 0
142 -141 0
141 157 97 -142 0
-141 140 0
-97 -138 0
137 -138 0
142 -138 0
138 97 -137 -142 0
-138 140 0
-140 139 141 138 0
-157 -136 0
-97 -136 0
137 -136 0
136 157 97 -137 0
-136 135 0
157 -133 0
-97 -133 0
96 -133 0
133 -157 97 -96 0
-133 135 0
-97 -134 0
137 -134 0
96 -134 0
134 97 -137 -96 0
-134 135 0
-135 136 133 134 0
86 -29 0
-97 -29 0
30 -29 0
29 -86 97 -30 0
-29 25 0
-86 -26 0
-97 -26 0
27 -26 0
26 86 97 -27 0
-26 25 0
-97 -28 0
30 -28 0
27 -28 0
28 97 -30 -27 0
-28 25 0
-25 29 26 28 0
86 -34 0
-97 -34 0
35 -34 0
34 -86 97 -35 0
-34 32 0
-86 -33 0
-97 -33 0
30 -33 0
33 86 97 -30 0
-33 32 0
-97 -31 0
35 -31 0
30 -31 0
31 97 -35 -30 0
-31 32 0
-32 34 33 31 0
86 -39 0
-97 -39 0
40 -39 0
39 -86 97 -40 0
-39 37 0
-86 -38 0
-97 -38 0
35 -38 0
38 86 97 -35 0
-38 37 0
-97 -36 0
40 -36 0
35 -36 0
36 97 -40 -35 0
-36 37 0
-37 39 38 36 0
86 -44 0
-97 -44 0
45 -44 0
44 -86 97 -45 0
-44 42 0
-86 -43 0
-97 -43 0
40 -43 0
43 86 97 -40 0
-43 42 0
-97 -41 0
45 -41 0
40 -41 0
41 97 -45 -40 0
-41 42 0
-42 44 43 41 0
86 -49 0
-97 -49 0
50 -49 0
49 -86 97 -50 0
-49 47 0
-86 -48 0
-97 -48 0
45 -48 0
48 86 97 -45 0
-48 47 0
-97 -46 0
50 -46 0
45 -46 0
46 97 -50 -45 0
-46 47 0
-47 49 48 46 0
86 -54 0
-97 -54 0
55 -54 0
54 -86 97 -55 0
-54 52 0
-86 -53 0
-97 -53 0
50 -53 0
53 86 97 -50 0
-53 52 0
-97 -51 0
55 -51 0
50 -51 0
51 97 -55 -50 0
-51 52 0
-52 54 53 51 0
86 -85 0
-97 -85 0
94 -85 0
85 -86 97 -94 0
-85 57 0
-86 -58 0
-97 -58 0
55 -58 0
58 86 97 -55 0
-58 57 0
-97 -56 0
94 -56 0
55 -56 0
56 97 -94 -55 0
-56 57 0
-57 85 58 56 0
-86 -93 0
-97 -93 0
94 -93 0
93 86 97 -94 0
-93 100 0
96 -92 0
86 -92 0
-97 -92 0
91 -92 0
92 -96 -86 97 -91 0
-92 100 0
96 -95 0
-97 -95 0
91 -95 0
94 -95 0
95 -96 97 -91 -94 0
-95 100 0
96 -99 0
86 -99 0
-97 -99 0
103 -99 0
99 -96 -86 97 -103 0
-99 100 0
86 -98 0
-97 -98 0
-91 -98 0
103 -98 0
98 -86 97 91 -103 0
-98 100 0
96 -102 0
-97 -102 0
94 -102 0
103 -102 0
102 -96 97 -94 -103 0
-102 100 0
-97 -101 0
-91 -101 0
94 -101 0
103 -101 0
101 97 91 -94 -103 0
-101 100 0
-100 93 92 95 99 98 102 101 0
-86 -106 0
-97 -106 0
103 -106 0
106 86 97 -103 0
-106 108 0
-97 -105 0
91 -105 0
103 -105 0
105 97 -91 -103 0
-105 108 0
-97 -109 0
103 -109 0
110 -109 0
109 97 -103 -110 0
-109 108 0
86 -107 0
-97 -107 0
-91 -107 0
110 -107 0
107 -86 97 91 -110 0
-107 108 0
-108 106 105 109 107 0
-86 -111 0
-97 -111 0
110 -111 0
111 86 97 -110 0
-111 114 0
-97 -112 0
91 -112 0
110 -112 0
112 97 -91 -110 0
-112 114 0
-97 -115 0
110 -115 0
116 -115 0
115 97 -110 -116 0
-115 114 0
86 -113 0
-97 -113 0
-91 -113 0
116 -113 0
113 -86 97 91 -116 0
-113 114 0
-114 111 112 115 113 0
-86 -117 0
-97 -117 0
116 -117 0
117 86 97 -116 0
-117 120 0
-97 -119 0
91 -119 0
116 -119 0
119 97 -91 -116 0
-119 120 0
-97 -118 0
116 -118 0
90 -118 0
118 97 -116 -90 0
-118 120 0
86 -104 0
-97 -104 0
-91 -104 0
90 -104 0
104 -86 97 91 -90 0
-104 120 0
-120 117 119 118 104 0
-86 -87 0
-97 -87 0
90 -87 0
87 86 97 -90 0
-87 77 0
-97 -89 0
91 -89 0
90 -89 0
89 97 -91 -90 0
-89 77 0
-97 -76 0
90 -76 0
75 -76 0
76 97 -90 -75 0
-76 77 0
86 -78 0
-97 -78 0
-91 -78 0
75 -78 0
78 -86 97 91 -75 0
-78 77 0
-77 87 89 76 78 0
-86 -73 0
-97 -73 0
75 -73 0
73 86 97 -75 0
-73 71 0
-97 -74 0
91 -74 0
75 -74 0
74 97 -91 -75 0
-74 71 0
-97 -70 0
75 -70 0
69 -70 0
70 97 -75 -69 0
-70 71 0
86 -72 0
-97 -72 0
-91 -72 0
69 -72 0
72 -86 97 91 -69 0
-72 71 0
-71 73 74 70 72 0
-86 -67 0
-97 -67 0
69 -67 0
67 86 97 -69 0
-67 65 0
-97 -68 0
91 -68 0
69 -68 0
68 97 -91 -69 0
-68 65 0
-97 -64 0
69 -64 0
63 -64 0
64 97 -69 -63 0
-64 65 0
86 -66 0
-97 -66 0
-91 -66 0
63 -66 0
66 -86 97 91 -63 0
-66 65 0
-65 67 68 64 66 0
-86 -61 0
-97 -61 0
63 -61 0
61 86 97 -63 0
-61 59 0
-97 -60 0
91 -60 0
63 -60 0
60 97 -91 -63 0
-60 59 0
-97 -62 0
63 -62 0
80 -62 0
62 97 -63 -80 0
-62 59 0
86 -79 0
-97 -79 0
-91 -79 0
80 -79 0
79 -86 97 91 -80 0
-79 59 0
-59 61 60 62 79 0
96 -84 0
-97 -84 0
80 -84 0
84 -96 97 -80 0
-84 82 0
-86 -81 0
-97 -81 0
80 -81 0
81 86 97 -80 0
-81 82 0
-97 -83 0
91 -83 0
80 -83 0
83 97 -91 -80 0
-83 82 0
96 -88 0
86 -88 0
-97 -88 0
-91 -88 0
88 -96 -86 97 91 0
-88 82 0
-82 84 81 83 88 0
